Minimize
	value: tt

Subject to
tt + 2000 s_1_1 > 0
tt - t_1_1 - 2000.000000 s_1_1 > -1998.027200
tt + 2000 s_2_1 > 0
tt - t_2_1 - 2000.000000 s_2_1 > -1998.771500
tt + 2000 s_1_2 > 0
tt - t_1_2 - 2000.000000 s_1_2 > -1997.054100
tt + 2000 s_2_2 > 0
tt - t_2_2 - 2000.000000 s_2_2 > -1997.527100
tt + 2000 s_1_3 > 0
tt - t_1_3 - 2000.000000 s_1_3 > -1994.782500
tt + 2000 s_2_3 > 0
tt - t_2_3 - 2000.000000 s_2_3 > -1996.042000
tt + 2000 s_1_4 > 0
tt - t_1_4 - 2000.000000 s_1_4 > -1997.216600
tt + 2000 s_2_4 > 0
tt - t_2_4 - 2000.000000 s_2_4 > -1997.571300
tt + 2000 s_1_5 > 0
tt - t_1_5 - 2033.513600 s_1_5 + 33.513600 s_1_1 > -1999.730250
tt + 2000 s_2_5 > 0
tt - t_2_5 - 2044.847720 s_2_5 + 44.847720 s_2_1 > -1998.746200
s_1_1 + s_2_1  = 1
s_1_2 + s_2_2  = 1
s_1_3 + s_2_3  = 1
s_1_4 + s_2_4  = 1
s_1_5 + s_2_5  = 1
t_1_1 - t_1_2 + 2000.000000 u_1_1_2 > 2.945900
t_1_2 - t_1_1 - 2000.000000 u_1_1_2 > -1998.027200
t_2_1 - t_2_2 + 2000.000000 u_2_1_2 > 2.472900
t_2_2 - t_2_1 - 2000.000000 u_2_1_2 > -1998.771500
t_1_1 - t_1_3 + 2000.000000 u_1_1_3 > 5.217500
t_1_3 - t_1_1 - 2000.000000 u_1_1_3 > -1998.027200
t_2_1 - t_2_3 + 2000.000000 u_2_1_3 > 3.958000
t_2_3 - t_2_1 - 2000.000000 u_2_1_3 > -1998.771500
t_1_1 - t_1_4 + 2000.000000 u_1_1_4 > 2.783400
t_1_4 - t_1_1 - 2000.000000 u_1_1_4 > -1998.027200
t_2_1 - t_2_4 + 2000.000000 u_2_1_4 > 2.428700
t_2_4 - t_2_1 - 2000.000000 u_2_1_4 > -1998.771500
t_1_5 - t_1_1 - 2000.000000 s_1_1 > -1993.447880
t_1_5 - t_2_1 - 2000.000000 s_2_1 > -1989.100260
t_2_5 - t_1_1 - 2000.000000 s_1_1 > -1993.447880
t_2_5 - t_2_1 - 2000.000000 s_2_1 > -1989.100260
t_1_2 - t_1_1 + 2000.000000 u_1_2_1 > 1.972800
t_1_1 - t_1_2 - 2000.000000 u_1_2_1 > -1997.054100
t_2_2 - t_2_1 + 2000.000000 u_2_2_1 > 1.228500
t_2_1 - t_2_2 - 2000.000000 u_2_2_1 > -1997.527100
t_1_2 - t_1_3 + 2000.000000 u_1_2_3 > 5.217500
t_1_3 - t_1_2 - 2000.000000 u_1_2_3 > -1997.054100
t_2_2 - t_2_3 + 2000.000000 u_2_2_3 > 3.958000
t_2_3 - t_2_2 - 2000.000000 u_2_2_3 > -1997.527100
t_1_2 - t_1_4 + 2000.000000 u_1_2_4 > 2.783400
t_1_4 - t_1_2 - 2000.000000 u_1_2_4 > -1997.054100
t_2_2 - t_2_4 + 2000.000000 u_2_2_4 > 2.428700
t_2_4 - t_2_2 - 2000.000000 u_2_2_4 > -1997.527100
t_1_5 - t_1_2 - 2000.000000 s_1_2 > -1992.474780
t_1_5 - t_2_2 - 2000.000000 s_2_2 > -1987.855860
t_2_5 - t_1_2 - 2000.000000 s_1_2 > -1992.474780
t_2_5 - t_2_2 - 2000.000000 s_2_2 > -1987.855860
t_1_3 - t_1_1 + 2000.000000 u_1_3_1 > 1.972800
t_1_1 - t_1_3 - 2000.000000 u_1_3_1 > -1994.782500
t_2_3 - t_2_1 + 2000.000000 u_2_3_1 > 1.228500
t_2_1 - t_2_3 - 2000.000000 u_2_3_1 > -1996.042000
t_1_3 - t_1_2 + 2000.000000 u_1_3_2 > 2.945900
t_1_2 - t_1_3 - 2000.000000 u_1_3_2 > -1994.782500
t_2_3 - t_2_2 + 2000.000000 u_2_3_2 > 2.472900
t_2_2 - t_2_3 - 2000.000000 u_2_3_2 > -1996.042000
t_1_3 - t_1_4 + 2000.000000 u_1_3_4 > 2.783400
t_1_4 - t_1_3 - 2000.000000 u_1_3_4 > -1994.782500
t_2_3 - t_2_4 + 2000.000000 u_2_3_4 > 2.428700
t_2_4 - t_2_3 - 2000.000000 u_2_3_4 > -1996.042000
t_1_5 - t_1_3 - 2000.000000 s_1_3 > -1990.203180
t_1_5 - t_2_3 - 2000.000000 s_2_3 > -1986.370760
t_2_5 - t_1_3 - 2000.000000 s_1_3 > -1990.203180
t_2_5 - t_2_3 - 2000.000000 s_2_3 > -1986.370760
t_1_4 - t_1_1 + 2000.000000 u_1_4_1 > 1.972800
t_1_1 - t_1_4 - 2000.000000 u_1_4_1 > -1997.216600
t_2_4 - t_2_1 + 2000.000000 u_2_4_1 > 1.228500
t_2_1 - t_2_4 - 2000.000000 u_2_4_1 > -1997.571300
t_1_4 - t_1_2 + 2000.000000 u_1_4_2 > 2.945900
t_1_2 - t_1_4 - 2000.000000 u_1_4_2 > -1997.216600
t_2_4 - t_2_2 + 2000.000000 u_2_4_2 > 2.472900
t_2_2 - t_2_4 - 2000.000000 u_2_4_2 > -1997.571300
t_1_4 - t_1_3 + 2000.000000 u_1_4_3 > 5.217500
t_1_3 - t_1_4 - 2000.000000 u_1_4_3 > -1997.216600
t_2_4 - t_2_3 + 2000.000000 u_2_4_3 > 3.958000
t_2_3 - t_2_4 - 2000.000000 u_2_4_3 > -1997.571300
t_1_5 - t_1_4 - 2000.000000 s_1_4 > -1992.637280
t_1_5 - t_2_4 - 2000.000000 s_2_4 > -1987.900060
t_2_5 - t_1_4 - 2000.000000 s_1_4 > -1992.637280
t_2_5 - t_2_4 - 2000.000000 s_2_4 > -1987.900060
t_1_5 - t_1_1 - 2000.000000 s_1_1 > -1993.447880
t_1_5 - t_2_1 - 2000.000000 s_2_1 > -1989.100260
t_2_5 - t_1_1 - 2000.000000 s_1_1 > -1993.447880
t_2_5 - t_2_1 - 2000.000000 s_2_1 > -1989.100260
t_1_5 - t_1_2 - 2000.000000 s_1_2 > -1992.474780
t_1_5 - t_2_2 - 2000.000000 s_2_2 > -1987.855860
t_2_5 - t_1_2 - 2000.000000 s_1_2 > -1992.474780
t_2_5 - t_2_2 - 2000.000000 s_2_2 > -1987.855860
t_1_5 - t_1_3 - 2000.000000 s_1_3 > -1990.203180
t_1_5 - t_2_3 - 2000.000000 s_2_3 > -1986.370760
t_2_5 - t_1_3 - 2000.000000 s_1_3 > -1990.203180
t_2_5 - t_2_3 - 2000.000000 s_2_3 > -1986.370760
t_1_5 - t_1_4 - 2000.000000 s_1_4 > -1992.637280
t_1_5 - t_2_4 - 2000.000000 s_2_4 > -1987.900060
t_2_5 - t_1_4 - 2000.000000 s_1_4 > -1992.637280
t_2_5 - t_2_4 - 2000.000000 s_2_4 > -1987.900060
Binary
s_1_1
s_2_1
s_1_2
s_2_2
s_1_3
s_2_3
s_1_4
s_2_4
s_1_5
s_2_5
u_1_1_2
u_2_1_2
u_1_1_3
u_2_1_3
u_1_1_4
u_2_1_4
u_1_2_1
u_2_2_1
u_1_2_3
u_2_2_3
u_1_2_4
u_2_2_4
u_1_3_1
u_2_3_1
u_1_3_2
u_2_3_2
u_1_3_4
u_2_3_4
u_1_4_1
u_2_4_1
u_1_4_2
u_2_4_2
u_1_4_3
u_2_4_3

End
